StudentsNr = 10;
InstructorsNr = 39;
DaysNr = 2;
SlotsPerDay = 15;
AvailabilitySlotsLenght = 15;
RoomNr = 2;
ProgrammNr = 2;
DegreeNr = 1;
RolesNr = 0;
CoursesNr = 2;
InstructorsProgramm = [{1}, {1}, {1, 2}, {2}, {1, 2}, {1, 2}, {1, 2}, {2}, {2}, {1}, {1, 2}, {1}, {1}, {2}, {2}, {2}, {1}, {2}, {2}, {1, 2}, {2}, {2}, {2}, {2}, {1}, {1, 2}, {2}, {2}, {2}, {2}, {1}, {1}, {1, 2}, {2}, {1, 2}, {1, 2}, {1}, {1}, {2}];
InstructorRolesPerProgramm = array2d(1..ProgrammNr,{},[]);
InstructorsAvailability = [|1, 1, |1, 1, |0, 0, |0, 1, |1, 1, |1, 1, |0, 1, |0, 1, |0, 0, |1, 1, |1, 1, |0, 1, |0, 1, |0, 0, |0, 1, |0, 1, |1, 0, |0, 0, |1, 1, |0, 0, |1, 1, |0, 1, |0, 0, |1, 1, |0, 0, |0, 0, |1, 1, |0, 1, |1, 1, |0, 0, |0, 0, |1, 1, |1, 1, |0, 1, |0, 1, |0, 1, |1, 1, |0, 1, |0, 0|];
StudentsProgramm = [1, 1, 1, 2, 2, 1, 2, 2, 2, 1];
StudentsDegree = [1, 1, 1, 1, 1, 1, 1, 1, 1, 1];
StudentsSupervisorId = [32, 38, 26, 14, 16, 25, 18, 14, 15, 2];
StudentsCourseIds = [{1, 2}, {1, 2}, {1, 2}, {1, 2}, {1, 2}, {1, 2}, {1, 2}, {1, 2}, {1, 2}, {1, 2}];
StudentsAvailability = [|0, 0, |0, 1, |0, 1, |0, 0, |1, 1, |0, 0, |0, 1, |0, 0, |1, 1, |0, 1|];
TheoryticalMinCard = [3, 3, 3, 2, 3, 2, 3, 2, 2, 2];
CoursesInstructorIds = [{2, 3, 4, 6, 7, 11, 14, 15, 17, 22, 25, 27, 30, 33, 34, 35}, {10, 28}];
RolesDemands = [];
RolesContinuity = [];
ExamLen = [1, 1, 1, 1, 1, 1, 1, 1, 1, 1];
LunchTsMinLen = 1;
LunchStarts = [5..9, 19..26];
SupervisorAvailable = 5;
OptimalLunchLenght = [0, 1];
OptimalStartTs = [2, 0];
OptimalFinishTs = [1, 15];
MinimizeRooms = 400;
RolesSoftContinuity = array2d(1..2,{},[]);
SameDegreeInRoom = 0;
Mergeability = 2;
